g3 2 1 0	# problem inst_sans_ref
 27 78 1 0 19	# vars, constraints, objectives, ranges, eqns
 19 1	# nonlinear constraints, objectives
 0 0	# network constraints: nonlinear, linear
 8 8 8	# nonlinear vars in constraints, objectives, both
 0 0 0 1	# linear network variables; functions; arith, flags
 0 0 0 0 0	# discrete variables: binary, integer, nonlinear (b,c,o)
 206 16	# nonzeros in Jacobian, gradients
 0 0	# max name lengths: constraints, variables
 0 0 0 0 0	# common exprs: b,c,o,c1,o1
b
0 0 1
0 0 1
0 0 1
0 0 1
0 0 1
0 0 1
0 0 1
0 0 1
0 0 1
0 0 1
0 0 1
0 0 1
0 0 1
0 0 1
0 0 1
0 0 1
0 0 1
0 0 1
0 0 1
0 0 1
0 0 1
0 0 1
0 0 1
0 0 1
0 0 1
0 0 1
0 0 1
r
4 0
4 0
4 0
4 0
4 0
4 0
4 0
4 0
4 0
4 0
4 0
4 0
4 0
4 0
4 0
4 0
4 0
4 0
4 0
1 3.76
1 4.92
1 0
1 0
1 0
1 0
1 0
1 0
1 0
1 0
1 0
1 0
1 0
1 0
1 0
1 0
1 0
1 0
1 0
1 0
1 0
1 0
1 0
1 0
1 0
1 0
1 0
1 0
1 0
1 0
1 0
1 0
2 -1
2 -1
2 -1
2 -1
2 -1
2 -1
2 -1
2 -1
2 -1
2 -1
2 -1
2 -1
2 -1
2 -1
2 -1
2 -1
2 -1
2 -1
2 -1
2 0
2 0
2 0
2 0
2 0
2 0
2 0
2 0
C0
o16
o2
v0
v0
C1
o16
o2
v0
v5
C2
o16
o2
v0
v6
C3
o16
o2
v0
v7
C4
o16
o2
v1
v1
C5
o16
o2
v1
v5
C6
o16
o2
v1
v6
C7
o16
o2
v2
v2
C8
o16
o2
v2
v4
C9
o16
o2
v2
v6
C10
o16
o2
v2
v7
C11
o16
o2
v3
v3
C12
o16
o2
v3
v4
C13
o16
o2
v3
v6
C14
o16
o2
v3
v7
C15
o16
o2
v4
v4
C16
o16
o2
v5
v5
C17
o16
o2
v6
v6
C18
o16
o2
v7
v7
C19
n0
C20
n0
C21
n0
C22
n0
C23
n0
C24
n0
C25
n0
C26
n0
C27
n0
C28
n0
C29
n0
C30
n0
C31
n0
C32
n0
C33
n0
C34
n0
C35
n0
C36
n0
C37
n0
C38
n0
C39
n0
C40
n0
C41
n0
C42
n0
C43
n0
C44
n0
C45
n0
C46
n0
C47
n0
C48
n0
C49
n0
C50
n0
C51
n0
C52
n0
C53
n0
C54
n0
C55
n0
C56
n0
C57
n0
C58
n0
C59
n0
C60
n0
C61
n0
C62
n0
C63
n0
C64
n0
C65
n0
C66
n0
C67
n0
C68
n0
C69
n0
C70
n0
C71
n0
C72
n0
C73
n0
C74
n0
C75
n0
C76
n0
C77
n0
O0 0
o54
24
o2
o2
n0.294858
v0
v0
o2
o2
n1.687218
v1
v1
o2
o2
n-0.68
v1
v4
o2
o2
n-0.15
v1
v6
o2
o2
n0.85
v1
v7
o2
o2
n1.591845
v2
v2
o2
o2
n0.885
v2
v4
o2
o2
n-0.32
v2
v6
o2
o2
n-0.495
v2
v7
o2
o2
n0.974023
v3
v3
o2
o2
n0.83
v3
v4
o2
o2
n0.345
v3
v7
o2
o2
n-0.68
v4
v1
o2
o2
n0.885
v4
v2
o2
o2
n0.83
v4
v3
o2
o2
n2.272542
v4
v4
o2
o2
n0.189283
v5
v5
o2
o2
n-0.15
v6
v1
o2
o2
n-0.32
v6
v2
o2
o2
n0.38904
v6
v6
o2
o2
n0.85
v7
v1
o2
o2
n-0.495
v7
v2
o2
o2
n0.345
v7
v3
o2
o2
n1.027895
v7
v7
k26
15
27
42
57
69
81
99
114
118
123
128
134
138
144
149
153
159
165
171
175
180
185
190
194
198
202
J0 2
0 0
8 1
J1 3
0 0
5 0
9 1
J2 3
0 0
6 0
10 1
J3 3
0 0
7 0
11 1
J4 2
1 0
12 1
J5 3
1 0
5 0
13 1
J6 3
1 0
6 0
14 1
J7 2
2 0
15 1
J8 3
2 0
4 0
16 1
J9 3
2 0
6 0
17 1
J10 3
2 0
7 0
18 1
J11 2
3 0
19 1
J12 3
3 0
4 0
20 1
J13 3
3 0
6 0
21 1
J14 3
3 0
7 0
22 1
J15 2
4 0
23 1
J16 2
5 0
24 1
J17 2
6 0
25 1
J18 2
7 0
26 1
J19 16
0 0.21
1 -0.75
2 0.93
3 0.88
4 0.35
5 0.67
6 0.74
7 0.92
9 -1.04
11 -0.93
13 -1.11
14 -1.52
16 -1.6
17 1.26
18 -1.62
20 1.43
J20 16
0 0.26
1 0.62
2 0.17
3 -0.91
4 -0.88
5 0.82
6 -0.94
7 -0.89
10 -0.39
11 0.69
13 -0.75
16 0.31
17 0.56
18 1.84
21 0.38
22 -0.67
J21 2
0 -1
8 1
J22 2
0 -1
9 1
J23 2
0 -1
10 1
J24 2
0 -1
11 1
J25 2
1 -1
12 1
J26 2
1 -1
13 1
J27 2
1 -1
14 1
J28 2
2 -1
15 1
J29 2
2 -1
16 1
J30 2
2 -1
17 1
J31 2
2 -1
18 1
J32 2
3 -1
19 1
J33 2
3 -1
20 1
J34 2
3 -1
21 1
J35 2
3 -1
22 1
J36 2
4 -1
23 1
J37 2
5 -1
24 1
J38 2
6 -1
25 1
J39 2
7 -1
26 1
J40 2
5 -1
9 1
J41 2
6 -1
10 1
J42 2
7 -1
11 1
J43 2
5 -1
13 1
J44 2
6 -1
14 1
J45 2
4 -1
16 1
J46 2
6 -1
17 1
J47 2
7 -1
18 1
J48 2
4 -1
20 1
J49 2
6 -1
21 1
J50 2
7 -1
22 1
J51 2
0 -2
8 1
J52 3
0 -1
5 -1
9 1
J53 3
0 -1
6 -1
10 1
J54 3
0 -1
7 -1
11 1
J55 2
1 -2
12 1
J56 3
1 -1
5 -1
13 1
J57 3
1 -1
6 -1
14 1
J58 2
2 -2
15 1
J59 3
2 -1
4 -1
16 1
J60 3
2 -1
6 -1
17 1
J61 3
2 -1
7 -1
18 1
J62 2
3 -2
19 1
J63 3
3 -1
4 -1
20 1
J64 3
3 -1
6 -1
21 1
J65 3
3 -1
7 -1
22 1
J66 2
4 -2
23 1
J67 2
5 -2
24 1
J68 2
6 -2
25 1
J69 2
7 -2
26 1
J70 2
0 -1
8 1
J71 2
1 -1
12 1
J72 2
2 -1
15 1
J73 2
3 -1
19 1
J74 2
4 -1
23 1
J75 2
5 -1
24 1
J76 2
6 -1
25 1
J77 2
7 -1
26 1
G0 16
0 0.55
1 0.56
2 -0.23
3 0.72
4 0.84
5 -0.38
6 -0.06
7 -0.19
8 -0.294858
12 -1.687218
15 -1.591845
19 -0.974023
23 -2.272542
24 -0.189283
25 -0.38904
26 -1.027895
